156262
41,14,24,68,7,82,27,78,1,56,2,11,34,37,15,10,74,29,6,55,71,80,46,42,22,54,60,5,77,40,62,38,51,49,64,3,52,58,67,18,23,47,20,4,57,21,43,73,39,81,32,26,48,33,59,50,16,76,8,31,53,45,44,79,61,69,72,28,63,9,0,36,17,12,70,65,35,25,75,19,66,13,30,41
